0 3174 
1 3170 
2 3158 
3 3150 
4 3146 
5 3134 
6 3128 
7 3124 
8 3120 
9 3104 
10 3100 
11 3080 
12 3052 
13 3048 
14 3040 
15 3020 
16 3010 
17 2988 
18 2986 
19 2984 
20 2972 
21 2970 
22 2962 
23 2950 
24 2942 
25 2942 
26 2938 
27 2934 
28 2930 
29 2920 
30 2914 
31 2910 
32 2894 
33 2884 
34 2872 
35 2864 
36 2860 
37 2850 
38 2846 
39 2834 
40 2832 
41 2828 
42 2826 
43 2790 
44 2784 
45 2774 
46 2750 
47 2748 
48 2748 
49 2748 
50 2746 
51 2742 
52 2742 
53 2742 
54 2742 
55 2736 
56 2730 
57 2706 
58 2700 
59 2692 
60 2690 
61 2684 
62 2678 
63 2666 
64 2660 
65 2656 
66 2656 
67 2656 
68 2654 
69 2606 
70 2598 
71 2592 
72 2590 
73 2578 
74 2578 

